Academic license - for non-commercial use only
Optimize a model with 530 rows, 450 columns and 14622 nonzeros
Variable types: 0 continuous, 450 integer (450 binary)
Coefficient statistics:
  Matrix range     [1e+00, 2e+01]
  Objective range  [1e+00, 2e+01]
  Bounds range     [1e+00, 1e+00]
  RHS range        [1e+00, 2e+01]
Presolve removed 306 rows and 172 columns
Presolve time: 0.18s
Presolved: 224 rows, 278 columns, 5153 nonzeros
Variable types: 0 continuous, 278 integer (278 binary)
Found heuristic solution: objective 37.0000000

Root relaxation: objective 2.804924e+01, 29 iterations, 0.03 seconds

    Nodes    |    Current Node    |     Objective Bounds      |     Work
 Expl Unexpl |  Obj  Depth IntInf | Incumbent    BestBd   Gap | It/Node Time

     0     0   28.04924    0   15   37.00000   28.04924  24.2%     -    0s
H    0     0                      34.0000000   28.04924  17.5%     -    0s
H    0     0                      32.0000000   28.04924  12.3%     -    0s
H    0     0                      31.0000000   28.04924  9.52%     -    0s
     0     0   28.64286    0   10   31.00000   28.64286  7.60%     -    0s
     0     0   29.33333    0   17   31.00000   29.33333  5.38%     -    0s
     0     0     cutoff    0        31.00000   31.00000  0.00%     -    0s

Cutting planes:
  Gomory: 1
  Clique: 2

Explored 1 nodes (73 simplex iterations) in 0.39 seconds
Thread count was 8 (of 8 available processors)

Solution count 4: 31 32 34 37 

Optimal solution found (tolerance 1.00e-04)
Best objective 3.100000000000e+01, best bound 3.100000000000e+01, gap 0.0000%

